\ LP format - for model browsing. Use MPS format to capture full model detail.
Maximize
  4 t_S_0 + 2 bonus_0 + 2 t_0_1 + 2 t_S_1 + 2 bonus_1 + 4 t_1_0 + 2 t_1_2
   + 2 t_S_2 + 2 bonus_2 + 2 t_2_1
Subject To
 at_most_one_0: t_S_0 + t_1_0 <= 1
 io_euqal_0: t_S_0 - t_0_E - t_0_1 + t_1_0 = 0
 bonus_if_ride_taken_0: t_S_0 - bonus_0 + t_1_0 >= 0
 bonus_apply_0: - d_0 - 3 bonus_0 >= -3
 delay_S_0: 5 t_S_0 + d_0 >= 3
 delay_0_1: d_0 + 10 t_0_1 - d_1 <= 3
 at_most_one_1: t_0_1 + t_S_1 + t_2_1 <= 1
 io_euqal_1: t_0_1 + t_S_1 - t_1_E - t_1_0 - t_1_2 + t_2_1 = 0
 bonus_if_ride_taken_1: t_0_1 + t_S_1 - bonus_1 + t_2_1 >= 0
 bonus_apply_1: - d_1 - 7 bonus_1 >= -7
 delay_S_1: 4 t_S_1 + d_1 >= 7
 delay_1_0: - d_0 + d_1 + 8 t_1_0 <= 7
 delay_1_2: d_1 + 10 t_1_2 - d_2 <= 7
 at_most_one_2: t_1_2 + t_S_2 <= 1
 io_euqal_2: t_1_2 + t_S_2 - t_2_E - t_2_1 = 0
 bonus_if_ride_taken_2: t_1_2 + t_S_2 - bonus_2 >= 0
 bonus_apply_2: - d_2 - 7 bonus_2 >= -7
 delay_S_2: 5 t_S_2 + d_2 >= 7
 delay_2_1: - d_1 + d_2 + 10 t_2_1 <= 7
Bounds
 d_0 <= 3
 d_1 <= 7
 d_2 <= 7
Binaries
 t_S_0 t_0_E bonus_0 t_0_1 t_S_1 t_1_E bonus_1 t_1_0 t_1_2 t_S_2 t_2_E
 bonus_2 t_2_1
Generals
 d_0 d_1 d_2
End
